
Gurobi 11.0.0 (linux64) logging started Wed Aug 14 22:52:52 2024

Set parameter LogFile to value "gurobi.log"
Set parameter InfUnbdInfo to value 1
Gurobi Optimizer version 11.0.0 build v11.0.0rc2 (linux64 - "Ubuntu 22.04.4 LTS")

CPU model: AMD EPYC 7V13 64-Core Processor, instruction set [SSE2|AVX|AVX2]
Thread count: 128 physical cores, 128 logical processors, using up to 32 threads

Optimize a model with 39 rows, 136 columns and 108 nonzeros
Model fingerprint: 0x5d147f94
Model has 100 quadratic constraints
Model has 1 general constraint
Variable types: 29 continuous, 107 integer (0 binary)
Coefficient statistics:
  Matrix range     [1e+00, 5e+04]
  QMatrix range    [1e+00, 5e+04]
  QLMatrix range   [1e+00, 2e+05]
  Objective range  [1e+00, 1e+00]
  Bounds range     [1e+00, 6e+11]
  RHS range        [1e+00, 7e+03]
  QRHS range       [1e+00, 2e+06]
Warning: Model contains large bounds
         Consider reformulating model or setting NumericFocus parameter
         to avoid numerical issues.
Using branch priorities (all 0).
Presolve added 75 rows and 59 columns
Presolve time: 0.04s
Presolved: 476 rows, 255 columns, 1364 nonzeros
Presolved model has 24 SOS constraint(s)
Presolved model has 72 bilinear constraint(s)
Warning: Model contains variables with very large bounds participating
         in product terms.
         Presolve was not able to compute smaller bounds for these variables.
         Consider bounding these variables or reformulating the model.


Solving non-convex MIQCP

Variable types: 73 continuous, 182 integer (77 binary)

Root relaxation: objective 2.251203e+04, 158 iterations, 0.00 seconds (0.00 work units)

    Nodes    |    Current Node    |     Objective Bounds      |     Work
 Expl Unexpl |  Obj  Depth IntInf | Incumbent    BestBd   Gap | It/Node Time

     0     0 22512.0282    0  105          - 22512.0282      -     -    0s
     0     0 22512.0282    0  104          - 22512.0282      -     -    0s
H    0     0                    4.259084e+07 22512.0282   100%     -    0s
     0     0 23004.2665    0  122 4.2591e+07 23004.2665   100%     -    0s
     0     0 23004.2665    0  123 4.2591e+07 23004.2665   100%     -    0s
H    0     0                    326387.99992 23005.1557  93.0%     -    0s
     0     0 23021.2992    0  171 326388.000 23021.2992  92.9%     -    0s
H    0     0                    282387.99992 23031.2366  91.8%     -    0s
     0     0 23031.2366    0  171 282388.000 23031.2366  91.8%     -    0s
     0     0 23111.9943    0  165 282388.000 23111.9943  91.8%     -    0s
H    0     0                    239345.00000 23267.1280  90.3%     -    0s
     0     0 23267.1280    0  170 239345.000 23267.1280  90.3%     -    0s
     0     0 23350.3602    0  138 239345.000 23350.3602  90.2%     -    0s
     0     0 23501.8000    0  148 239345.000 23501.8000  90.2%     -    0s
     0     0 24917.7891    0  143 239345.000 24917.7891  89.6%     -    0s
     0     0 24988.0332    0  143 239345.000 24988.0332  89.6%     -    0s
     0     0 25181.3221    0  152 239345.000 25181.3221  89.5%     -    0s
     0     0 25723.8340    0  131 239345.000 25723.8340  89.3%     -    0s
H    0     0                    217239.03914 25723.8340  88.2%     -    0s
     0     2 25723.8340    0  131 217239.039 25723.8340  88.2%     -    0s
H   34    31                    161412.01978 30111.6044  81.3%  14.7    1s
H   36    31                    148065.00000 30111.6044  79.7%  15.4    1s
H   39    31                    137823.67849 30111.6044  78.2%  15.0    1s
H   41    31                    131003.07912 30111.6044  77.0%  15.4    1s
H   84    61                    121537.01978 31424.3283  74.1%  15.1    1s
H   87    61                    90604.449372 31424.3283  65.3%  14.7    1s
*  188    82              11    89710.000000 34636.9454  61.4%  13.9    1s
H  562   213                    88161.797785 41245.2673  53.2%  11.8    1s
H  570   213                    83876.696234 41245.2673  50.8%  11.7    1s
*  721   188              21    76347.019270 41245.2673  46.0%  10.9    1s
*  741   188              25    76337.019779 41245.2673  46.0%  10.8    1s
* 1181   117              14    76337.019031 41255.7500  46.0%  10.0    1s
* 1405   133              23    75209.498315 41255.7500  45.1%   9.3    1s
H 1448    78                    75204.498315 41265.2060  45.1%   9.2    1s
* 1776    80              36    75001.887349 41281.9491  45.0%   8.7    1s
* 1790    80              34    74896.887362 41281.9491  44.9%   8.7    1s
* 2259    83              26    74896.887163 41471.7481  44.6%   8.2    1s
* 2327    83              42    73949.393520 41471.7481  43.9%   8.3    1s
* 2335    83              38    73699.393520 41471.7481  43.7%   8.2    1s
* 2358    83              33    73599.393511 41471.7481  43.7%   8.2    1s

Cutting planes:
  Learned: 2
  Gomory: 6
  Implied bound: 43
  MIR: 37
  StrongCG: 4
  RLT: 43
  Relax-and-lift: 4
  BQP: 1

Explored 2873 nodes (23240 simplex iterations) in 2.06 seconds (0.17 work units)
Thread count was 32 (of 128 available processors)

Solution count 10: 73599.4 73699.4 73949.4 ... 76337

Optimal solution found (tolerance 1.00e-10)
Warning: max constraint violation (6.7262e-04) exceeds tolerance
Warning: max general constraint violation (6.7262e-04) exceeds tolerance
Best objective 7.359939351058e+04, best bound 7.359939351058e+04, gap 0.0000%
